c Random 7-CNF over 30 variables and 60 clauses
c Generated with `cnfgen`
c (C) 2012-2016 Massimo Lauria <lauria.massimo@gmail.com>
c https://massimolauria.github.io/cnfgen
c
c COMMAND LINE: cnfgen --output tmp-7-30-60.dimacs --output-format dimacs randkcnf 7 30 60
c
c sdimacs generated by gen-sdimacs
c
p cnf 30 60
r 0.5 1 2 3 4 5 6 7 8 9 10 11 12 13 14 15 0
e  16 17 18 19 20 21 22 23 24 25 26 27 28 29 30 0
1 2 -5 -9 16 17 20 0
1 12 16 -26 27 29 30 0
3 -7 8 19 -25 29 30 0
6 7 16 17 24 -26 -29 0
-7 9 10 19 21 23 -27 0
3 10 20 23 -24 25 -28 0
1 5 -10 13 15 -20 24 0
9 11 12 -13 -20 -22 -25 0
1 4 -6 -18 20 -26 29 0
-2 11 12 -17 -25 27 30 0
2 -3 -6 16 22 -23 -30 0
-9 -13 16 -20 22 -25 -28 0
1 8 9 12 -19 21 24 0
3 4 7 12 -16 19 23 0
3 -5 7 16 -23 26 30 0
-4 -5 7 11 -18 29 30 0
1 -10 -11 14 24 -29 30 0
-6 -9 -13 -15 17 -27 29 0
3 4 5 12 -14 28 30 0
10 18 -19 -20 22 24 29 0
2 3 11 -14 -15 -20 -26 0
-3 -9 -14 15 17 -27 29 0
-2 -3 4 12 14 22 27 0
-1 2 11 -13 -15 19 -27 0
-1 -3 12 14 15 28 -29 0
-4 6 10 -14 -19 22 -23 0
-2 -7 -14 19 -23 -27 28 0
-7 -9 10 -11 13 17 -27 0
3 5 18 -19 -20 -26 27 0
-2 -3 5 -9 -11 -12 -15 0
6 -10 -15 -21 -22 -27 29 0
2 -4 7 -19 -23 -29 30 0
7 -8 -12 -14 20 26 -30 0
3 -7 -8 17 -20 23 -30 0
8 -11 13 14 17 22 28 0
-2 5 -6 7 -8 -28 29 0
4 5 -6 -13 19 -23 -24 0
12 16 17 -19 25 -26 -28 0
-1 -4 5 6 20 -27 30 0
9 -11 -14 -19 -21 22 26 0
-2 8 9 -13 -16 18 28 0
-1 6 13 24 -25 -28 30 0
-3 4 13 14 -17 23 24 0
-5 6 -7 9 21 25 -28 0
5 -6 -7 -8 10 11 -22 0
-6 10 -11 14 15 -24 27 0
4 7 8 -10 -18 -25 30 0
4 5 12 13 -15 -17 20 0
-3 12 -13 -14 16 -17 -22 0
-8 11 13 -18 19 26 30 0
1 -6 -9 -14 -15 -23 26 0
2 4 -6 18 -22 23 -29 0
1 4 -5 12 -14 -21 30 0
4 7 8 9 10 28 -29 0
-4 -5 -10 19 20 -21 -26 0
12 -13 -14 15 -21 22 -26 0
7 10 -16 -21 -22 28 -30 0
-1 -3 9 10 -13 20 -26 0
2 5 -10 -15 -16 22 25 0
1 2 4 -5 -10 12 22 0
